p cnf 60 62
-1 17 23 44 50 0 
-2 -3 51 0 
-4 52 -13 -15 0 
-5 51 0 
-2 -6 43 51 0 
-7 22 -8 51 0 
-7 22 53 0 
-9 51 0 
-10 53 0 
-7 22 51 0 
-10 54 0 
-9 54 0 
-7 22 54 0 
-9 53 0 
-7 22 -11 51 0 
-12 51 0 
-13 15 55 0 
-13 15 51 0 
-14 56 0 
-13 15 57 0 
-15 13 51 0 
-16 58 0 
-17 1 23 44 58 0 
-18 38 -19 47 48 49 51 0 
-20 51 0 
-21 51 0 
-13 15 59 0 
-13 15 -22 7 54 0 
-14 53 0 
-14 51 0 
-23 1 17 44 -24 -13 15 51 0 
-13 15 -22 7 55 0 
-25 -26 -27 51 0 
-13 15 -28 -6 43 59 0 
-29 -13 15 51 0 
-13 15 -23 1 17 44 -6 43 54 0 
-13 15 -23 1 17 44 -22 7 53 0 
-13 15 53 0 
-13 15 -30 51 0 
-31 -32 53 0 
-31 -33 54 0 
-31 -32 60 0 
-34 41 42 51 0 
-35 51 0 
-25 -36 51 0 
-37 -38 18 51 0 
-39 51 0 
-40 51 0 
-41 34 42 51 0 
-42 34 41 51 0 
-43 6 51 0 
-37 51 0 
-38 18 51 0 
-44 1 17 23 51 0 
-45 51 0 
-24 -37 51 0 
-7 22 -33 51 0 
-7 22 -45 51 0 
-21 -46 51 0 
-38 18 -47 19 48 49 51 0 
-20 -48 19 47 49 51 0 
-12 -49 19 47 48 51 0 
